41
3	4	5	8	9	10	12	13	15	19	24	28	32	33	34	35	36	37	39	0
4	5	6	7	11	12	13	14	15	17	22	23	25	26	27	29	30	35	36	37	38	39	41	0
1	5	7	8	10	11	12	15	16	17	20	21	22	24	30	31	38	0
1	2	5	6	8	9	10	14	15	17	18	20	23	24	26	30	31	35	36	37	39	0
1	2	3	4	10	11	12	13	15	17	20	21	28	29	30	31	33	34	35	39	0
2	4	7	8	13	14	20	22	24	25	27	29	33	34	35	38	40	0
2	3	6	13	14	17	26	28	35	38	40	0
1	3	4	6	9	12	13	14	18	21	23	26	27	30	33	34	36	37	0
1	4	8	10	14	16	21	23	24	27	29	30	34	35	36	37	39	0
1	3	4	5	9	11	12	13	14	19	21	23	33	34	35	36	39	0
2	3	5	10	14	21	22	23	24	25	26	28	31	32	35	39	0
1	2	3	5	8	10	13	14	15	16	17	18	20	21	22	23	24	26	27	29	32	36	37	39	40	41	0
1	2	5	6	7	8	10	12	16	17	18	19	20	22	23	24	28	30	31	32	35	37	38	40	0
2	4	6	7	8	9	10	11	12	18	19	21	25	26	28	31	32	33	38	39	40	0
1	2	3	4	5	12	18	22	23	24	25	26	28	29	32	34	35	36	37	38	41	0
3	9	12	13	17	19	20	23	24	25	30	32	36	38	41	0
2	3	4	5	7	12	13	16	20	22	23	27	28	30	31	34	37	38	39	40	41	0
4	8	12	13	14	15	21	24	26	27	29	30	34	40	41	0
1	10	13	14	16	21	23	24	30	33	34	37	38	0
3	4	5	6	12	13	16	17	24	28	29	30	32	33	36	37	39	40	0
3	5	8	9	10	11	12	14	18	19	22	24	25	28	31	32	36	37	39	0
2	3	6	11	12	13	15	17	21	26	32	33	34	37	39	40	0
2	4	8	9	10	11	12	13	15	16	17	19	24	27	28	29	30	31	33	35	37	38	39	41	0
1	3	4	6	9	11	12	13	15	16	18	19	20	21	23	25	28	30	33	40	41	0
2	6	11	14	15	16	21	24	26	29	31	32	33	34	35	36	38	0
2	4	7	8	11	12	14	15	18	22	25	27	28	29	31	35	39	41	0
2	6	8	9	12	17	18	23	26	31	34	35	38	39	40	41	0
1	5	7	11	13	14	15	17	20	21	23	24	26	29	33	35	36	41	0
2	5	6	9	12	15	18	20	23	25	26	28	31	33	37	39	0
2	3	4	5	8	9	13	16	17	18	19	20	23	24	33	35	37	38	39	0
3	4	5	11	13	14	17	21	23	25	26	27	29	32	36	37	41	0
1	11	12	13	14	15	16	20	21	22	25	31	35	37	38	39	40	0
1	5	6	8	10	14	19	20	22	23	24	25	28	29	30	34	36	38	40	0
1	5	6	8	9	10	15	17	18	19	22	25	27	33	35	38	40	0
1	2	4	5	6	7	9	10	11	13	15	23	25	26	27	28	30	32	34	36	0
1	2	4	8	9	10	12	15	16	20	21	25	28	31	33	35	37	39	0
1	2	4	8	9	12	13	15	17	19	20	21	22	23	29	30	31	32	36	38	39	40	41	0
2	3	6	7	13	14	15	16	17	19	23	25	27	30	32	33	34	37	39	40	0
1	2	4	5	9	10	11	12	14	17	20	21	22	23	26	27	29	30	32	36	37	38	40	0
6	7	12	13	14	17	18	20	22	24	27	32	33	34	37	38	39	0
2	12	15	16	17	18	23	24	26	27	28	31	37	0


comments:
random graph
nodes 41
edges 379
